2 = number of variables
3 = number of blocks
2 2 2 = blocksizes (negative sign for LP-block, size of LP-block equals the number of LP-constraints)
-1.0 0.0
0 1 1 1 -1
0 1 2 2 -2
1 1 1 2 1
1 2 1 1 1
2 2 2 2 0.75
0 2 1 2 -1
0 3 1 1 -2
0 3 2 2 -1
2 3 1 2 1
*INTEGER
*1
*2
